50
7779

632 835
978 110
79 172
81 450
161 683
950 701
943 635
661 487
723 453
752 941
979 445
129 485
490 52
557 738
252 608
926 447
965 947
553 402
950 470
683 316
689 236
752 189
118 137
848 457
46 694
388 700
908 862
970 388
889 160
244 817
848 731
523 994
714 713
916 289
318 607
544 407
59 574
279 445
402 404
822 217
526 107
575 691
793 528
829 188
840 453
35 373
303 550
146 7
693 180
65 596
